p cnf 156 780
c p weight 10 0 0
c p weight -10 1 0
c p weight 11 1.0 0
c p weight -11 1 0
c p weight 16 -0.4161468365471424 0
c p weight -16 1 0
c p weight 17 0.9092974268256817 0
c p weight -17 1 0
c p weight 22 0 0
c p weight -22 1 0
c p weight 23 1.0 0
c p weight -23 1 0
c p weight 28 -0.4161468365471424 0
c p weight -28 1 0
c p weight 29 0.9092974268256817 0
c p weight -29 1 0
c p weight 35 -0.9684306916316954 0
c p weight -35 1 0
c p weight 36 0.2492829627266096 0
c p weight -36 1 0
c p weight 44 0 0
c p weight -44 1 0
c p weight 45 1.0 0
c p weight -45 1 0
c p weight 50 -0.4161468365471424 0
c p weight -50 1 0
c p weight 51 0.9092974268256817 0
c p weight -51 1 0
c p weight 56 0 0
c p weight -56 1 0
c p weight 57 1.0 0
c p weight -57 1 0
c p weight 62 -0.4161468365471424 0
c p weight -62 1 0
c p weight 63 0.9092974268256817 0
c p weight -63 1 0
c p weight 69 -0.9684306916316954 0
c p weight -69 1 0
c p weight 70 0.2492829627266096 0
c p weight -70 1 0
c p weight 76 1.0 0
c p weight -76 1 0
c p weight 77 0 0
c p weight -77 1 0
c p weight 80 0 0
c p weight -80 1 0
c p weight 81 1.0 0
c p weight -81 1 0
c p weight 84 -0.9980980334074785 0
c p weight -84 1 0
c p weight 85 -0.06164670070753145 0
c p weight -85 1 0
c p weight 88 0 0
c p weight -88 1 0
c p weight 89 1.0 0
c p weight -89 1 0
c p weight 92 -1.0 0
c p weight -92 1 0
c p weight 93 0 0
c p weight -93 1 0
c p weight 96 1.0 0
c p weight -96 1 0
c p weight 97 0 0
c p weight -97 1 0
c p weight 100 0 0
c p weight -100 1 0
c p weight 101 1.0 0
c p weight -101 1 0
c p weight 104 -0.9961957555388583 0
c p weight -104 1 0
c p weight 105 -0.08714365522723502 0
c p weight -105 1 0
c p weight 108 0 0
c p weight -108 1 0
c p weight 109 1.0 0
c p weight -109 1 0
c p weight 112 -1.0 0
c p weight -112 1 0
c p weight 113 0 0
c p weight -113 1 0
c p weight 119 1.0 0
c p weight -119 1 0
c p weight 120 0 0
c p weight -120 1 0
c p weight 123 0 0
c p weight -123 1 0
c p weight 124 1.0 0
c p weight -124 1 0
c p weight 127 -0.868200577646952 0
c p weight -127 1 0
c p weight 128 -0.49621341877613395 0
c p weight -128 1 0
c p weight 131 0 0
c p weight -131 1 0
c p weight 132 1.0 0
c p weight -132 1 0
c p weight 135 -1.0 0
c p weight -135 1 0
c p weight 136 0 0
c p weight -136 1 0
c p weight 139 1.0 0
c p weight -139 1 0
c p weight 140 0 0
c p weight -140 1 0
c p weight 143 0 0
c p weight -143 1 0
c p weight 144 1.0 0
c p weight -144 1 0
c p weight 147 -0.5814876230366136 0
c p weight -147 1 0
c p weight 148 -0.8135552496636164 0
c p weight -148 1 0
c p weight 151 0 0
c p weight -151 1 0
c p weight 152 1.0 0
c p weight -152 1 0
c p weight 155 -1.0 0
c p weight -155 1 0
c p weight 156 0 0
c p weight -156 1 0
6 -5 1 0
6 -5 2 0
-6 5 1 0
-6 5 2 0
6 5 -1 -2 0
-6 -5 -1 -2 0
7 1 -2 0
7 -1 2 0
-7 1 2 0
-7 -1 -2 0
8 9 -6 0
8 -6 7 0
-8 9 6 0
-8 6 7 0
8 -6 -1 0
-8 6 -1 0
8 -9 6 1 -7 0
-8 -9 -6 1 -7 0
9 -1 7 0
-9 1 7 0
-10 7 0
9 -10 -1 0
-9 -10 1 0
9 10 1 -7 0
-9 10 -1 -7 0
-11 7 0
9 -11 1 0
-9 -11 -1 0
9 11 -1 -7 0
-9 11 1 -7 0
12 -8 9 0
12 -8 7 0
-12 8 9 0
-12 8 7 0
12 8 -9 -7 0
-12 -8 -9 -7 0
13 9 -7 0
13 -9 7 0
-13 9 7 0
-13 -9 -7 0
14 -12 9 0
14 -12 13 0
-14 12 9 0
-14 12 13 0
14 -15 -12 0
-14 -15 12 0
14 15 12 -9 -13 0
-14 15 -12 -9 -13 0
15 9 -13 0
-15 9 13 0
-16 9 0
15 -16 -13 0
-15 -16 13 0
15 16 -9 13 0
-15 16 -9 -13 0
-17 9 0
15 -17 13 0
-15 -17 -13 0
15 17 -9 -13 0
-15 17 -9 13 0
18 -14 3 0
18 -14 4 0
-18 14 3 0
-18 14 4 0
18 14 -3 -4 0
-18 -14 -3 -4 0
19 3 -4 0
19 -3 4 0
-19 3 4 0
-19 -3 -4 0
20 21 -18 0
20 -18 19 0
-20 21 18 0
-20 18 19 0
20 -18 -3 0
-20 18 -3 0
20 -21 18 3 -19 0
-20 -21 -18 3 -19 0
21 -3 19 0
-21 3 19 0
-22 19 0
21 -22 -3 0
-21 -22 3 0
21 22 3 -19 0
-21 22 -3 -19 0
-23 19 0
21 -23 3 0
-21 -23 -3 0
21 23 -3 -19 0
-21 23 3 -19 0
24 -20 21 0
24 -20 19 0
-24 20 21 0
-24 20 19 0
24 20 -21 -19 0
-24 -20 -21 -19 0
25 21 -19 0
25 -21 19 0
-25 21 19 0
-25 -21 -19 0
26 -24 21 0
26 -24 25 0
-26 24 21 0
-26 24 25 0
26 -27 -24 0
-26 -27 24 0
26 27 24 -21 -25 0
-26 27 -24 -21 -25 0
27 21 -25 0
-27 21 25 0
-28 21 0
27 -28 -25 0
-27 -28 25 0
27 28 -21 25 0
-27 28 -21 -25 0
-29 21 0
27 -29 25 0
-27 -29 -25 0
27 29 -21 -25 0
-27 29 -21 25 0
30 -26 9 0
30 -26 27 0
-30 26 9 0
-30 26 27 0
30 -26 21 -15 0
30 -26 -21 15 0
-30 26 21 -15 0
-30 26 -21 15 0
30 26 -9 21 15 -27 0
30 26 -9 -21 -15 -27 0
-30 -26 -9 21 15 -27 0
-30 -26 -9 -21 -15 -27 0
32 9 -21 0
32 -9 21 0
-32 9 21 0
-32 -9 -21 0
31 15 -27 0
31 -15 27 0
-31 15 27 0
-31 -15 -27 0
33 -30 32 0
33 -30 27 0
-33 30 32 0
-33 30 27 0
33 -34 -30 0
-33 -34 30 0
33 34 30 -32 -27 0
-33 34 -30 -32 -27 0
34 32 -27 0
-34 32 27 0
-35 32 0
34 -35 -27 0
-34 -35 27 0
34 35 -32 27 0
-34 35 -32 -27 0
-36 32 0
34 -36 27 0
-34 -36 -27 0
34 36 -32 -27 0
-34 36 -32 27 0
37 -33 9 0
37 -33 34 0
-37 33 9 0
-37 33 34 0
37 -33 32 -31 0
37 -33 -32 31 0
-37 33 32 -31 0
-37 33 -32 31 0
37 33 -9 32 31 -34 0
37 33 -9 -32 -31 -34 0
-37 -33 -9 32 31 -34 0
-37 -33 -9 -32 -31 -34 0
39 9 -32 0
39 -9 32 0
-39 9 32 0
-39 -9 -32 0
38 31 -34 0
38 -31 34 0
-38 31 34 0
-38 -31 -34 0
40 -37 9 0
40 -37 38 0
-40 37 9 0
-40 37 38 0
40 37 -9 -38 0
-40 -37 -9 -38 0
41 9 -38 0
41 -9 38 0
-41 9 38 0
-41 -9 -38 0
42 43 -40 0
42 -40 41 0
-42 43 40 0
-42 40 41 0
42 -40 -9 0
-42 40 -9 0
42 -43 40 9 -41 0
-42 -43 -40 9 -41 0
43 -9 41 0
-43 9 41 0
-44 41 0
43 -44 -9 0
-43 -44 9 0
43 44 9 -41 0
-43 44 -9 -41 0
-45 41 0
43 -45 9 0
-43 -45 -9 0
43 45 -9 -41 0
-43 45 9 -41 0
46 -42 43 0
46 -42 41 0
-46 42 43 0
-46 42 41 0
46 42 -43 -41 0
-46 -42 -43 -41 0
47 43 -41 0
47 -43 41 0
-47 43 41 0
-47 -43 -41 0
48 -46 43 0
48 -46 47 0
-48 46 43 0
-48 46 47 0
48 -49 -46 0
-48 -49 46 0
48 49 46 -43 -47 0
-48 49 -46 -43 -47 0
49 43 -47 0
-49 43 47 0
-50 43 0
49 -50 -47 0
-49 -50 47 0
49 50 -43 47 0
-49 50 -43 -47 0
-51 43 0
49 -51 47 0
-49 -51 -47 0
49 51 -43 -47 0
-49 51 -43 47 0
52 -48 39 0
52 -48 34 0
-52 48 39 0
-52 48 34 0
52 48 -39 -34 0
-52 -48 -39 -34 0
53 39 -34 0
53 -39 34 0
-53 39 34 0
-53 -39 -34 0
54 55 -52 0
54 -52 53 0
-54 55 52 0
-54 52 53 0
54 -52 -39 0
-54 52 -39 0
54 -55 52 39 -53 0
-54 -55 -52 39 -53 0
55 -39 53 0
-55 39 53 0
-56 53 0
55 -56 -39 0
-55 -56 39 0
55 56 39 -53 0
-55 56 -39 -53 0
-57 53 0
55 -57 39 0
-55 -57 -39 0
55 57 -39 -53 0
-55 57 39 -53 0
58 -54 55 0
58 -54 53 0
-58 54 55 0
-58 54 53 0
58 54 -55 -53 0
-58 -54 -55 -53 0
59 55 -53 0
59 -55 53 0
-59 55 53 0
-59 -55 -53 0
60 -58 55 0
60 -58 59 0
-60 58 55 0
-60 58 59 0
60 -61 -58 0
-60 -61 58 0
60 61 58 -55 -59 0
-60 61 -58 -55 -59 0
61 55 -59 0
-61 55 59 0
-62 55 0
61 -62 -59 0
-61 -62 59 0
61 62 -55 59 0
-61 62 -55 -59 0
-63 55 0
61 -63 59 0
-61 -63 -59 0
61 63 -55 -59 0
-61 63 -55 59 0
64 -60 43 0
64 -60 61 0
-64 60 43 0
-64 60 61 0
64 -60 55 -49 0
64 -60 -55 49 0
-64 60 55 -49 0
-64 60 -55 49 0
64 60 -43 55 49 -61 0
64 60 -43 -55 -49 -61 0
-64 -60 -43 55 49 -61 0
-64 -60 -43 -55 -49 -61 0
66 43 -55 0
66 -43 55 0
-66 43 55 0
-66 -43 -55 0
65 49 -61 0
65 -49 61 0
-65 49 61 0
-65 -49 -61 0
67 -64 66 0
67 -64 61 0
-67 64 66 0
-67 64 61 0
67 -68 -64 0
-67 -68 64 0
67 68 64 -66 -61 0
-67 68 -64 -66 -61 0
68 66 -61 0
-68 66 61 0
-69 66 0
68 -69 -61 0
-68 -69 61 0
68 69 -66 61 0
-68 69 -66 -61 0
-70 66 0
68 -70 61 0
-68 -70 -61 0
68 70 -66 -61 0
-68 70 -66 61 0
71 -67 43 0
71 -67 68 0
-71 67 43 0
-71 67 68 0
71 -67 66 -65 0
71 -67 -66 65 0
-71 67 66 -65 0
-71 67 -66 65 0
71 67 -43 66 65 -68 0
71 67 -43 -66 -65 -68 0
-71 -67 -43 66 65 -68 0
-71 -67 -43 -66 -65 -68 0
73 43 -66 0
73 -43 66 0
-73 43 66 0
-73 -43 -66 0
72 65 -68 0
72 -65 68 0
-72 65 68 0
-72 -65 -68 0
74 -71 43 0
74 -71 72 0
-74 71 43 0
-74 71 72 0
74 -75 -71 0
-74 -75 71 0
74 75 71 -43 -72 0
-74 75 -71 -43 -72 0
75 43 -72 0
-75 43 72 0
-76 43 0
75 -76 -72 0
-75 -76 72 0
75 76 -43 72 0
-75 76 -43 -72 0
-77 43 0
75 -77 72 0
-75 -77 -72 0
75 77 -43 -72 0
-75 77 -43 72 0
78 79 -74 0
78 -74 75 0
-78 79 74 0
-78 74 75 0
78 -74 -43 0
-78 74 -43 0
78 -79 74 43 -75 0
-78 -79 -74 43 -75 0
79 -43 75 0
-79 43 75 0
-80 75 0
79 -80 -43 0
-79 -80 43 0
79 80 43 -75 0
-79 80 -43 -75 0
-81 75 0
79 -81 43 0
-79 -81 -43 0
79 81 -43 -75 0
-79 81 43 -75 0
82 -78 79 0
82 -78 75 0
-82 78 79 0
-82 78 75 0
82 -83 -78 0
-82 -83 78 0
82 83 78 -79 -75 0
-82 83 -78 -79 -75 0
83 79 -75 0
-83 79 75 0
-84 79 0
83 -84 -75 0
-83 -84 75 0
83 84 -79 75 0
-83 84 -79 -75 0
-85 79 0
83 -85 75 0
-83 -85 -75 0
83 85 -79 -75 0
-83 85 -79 75 0
86 87 -82 0
86 -82 83 0
-86 87 82 0
-86 82 83 0
86 -82 -79 0
-86 82 -79 0
86 -87 82 79 -83 0
-86 -87 -82 79 -83 0
87 -79 83 0
-87 79 83 0
-88 83 0
87 -88 -79 0
-87 -88 79 0
87 88 79 -83 0
-87 88 -79 -83 0
-89 83 0
87 -89 79 0
-87 -89 -79 0
87 89 -79 -83 0
-87 89 79 -83 0
90 -86 87 0
90 -86 83 0
-90 86 87 0
-90 86 83 0
90 -91 -86 0
-90 -91 86 0
90 91 86 -87 -83 0
-90 91 -86 -87 -83 0
91 87 -83 0
-91 87 83 0
-92 87 0
91 -92 -83 0
-91 -92 83 0
91 92 -87 83 0
-91 92 -87 -83 0
-93 87 0
91 -93 83 0
-91 -93 -83 0
91 93 -87 -83 0
-91 93 -87 83 0
94 -90 73 0
94 -90 68 0
-94 90 73 0
-94 90 68 0
94 -95 -90 0
-94 -95 90 0
94 95 90 -73 -68 0
-94 95 -90 -73 -68 0
95 73 -68 0
-95 73 68 0
-96 73 0
95 -96 -68 0
-95 -96 68 0
95 96 -73 68 0
-95 96 -73 -68 0
-97 73 0
95 -97 68 0
-95 -97 -68 0
95 97 -73 -68 0
-95 97 -73 68 0
98 99 -94 0
98 -94 95 0
-98 99 94 0
-98 94 95 0
98 -94 -73 0
-98 94 -73 0
98 -99 94 73 -95 0
-98 -99 -94 73 -95 0
99 -73 95 0
-99 73 95 0
-100 95 0
99 -100 -73 0
-99 -100 73 0
99 100 73 -95 0
-99 100 -73 -95 0
-101 95 0
99 -101 73 0
-99 -101 -73 0
99 101 -73 -95 0
-99 101 73 -95 0
102 -98 99 0
102 -98 95 0
-102 98 99 0
-102 98 95 0
102 -103 -98 0
-102 -103 98 0
102 103 98 -99 -95 0
-102 103 -98 -99 -95 0
103 99 -95 0
-103 99 95 0
-104 99 0
103 -104 -95 0
-103 -104 95 0
103 104 -99 95 0
-103 104 -99 -95 0
-105 99 0
103 -105 95 0
-103 -105 -95 0
103 105 -99 -95 0
-103 105 -99 95 0
106 107 -102 0
106 -102 103 0
-106 107 102 0
-106 102 103 0
106 -102 -99 0
-106 102 -99 0
106 -107 102 99 -103 0
-106 -107 -102 99 -103 0
107 -99 103 0
-107 99 103 0
-108 103 0
107 -108 -99 0
-107 -108 99 0
107 108 99 -103 0
-107 108 -99 -103 0
-109 103 0
107 -109 99 0
-107 -109 -99 0
107 109 -99 -103 0
-107 109 99 -103 0
110 -106 107 0
110 -106 103 0
-110 106 107 0
-110 106 103 0
110 -111 -106 0
-110 -111 106 0
110 111 106 -107 -103 0
-110 111 -106 -107 -103 0
111 107 -103 0
-111 107 103 0
-112 107 0
111 -112 -103 0
-111 -112 103 0
111 112 -107 103 0
-111 112 -107 -103 0
-113 107 0
111 -113 103 0
-111 -113 -103 0
111 113 -107 -103 0
-111 113 -107 103 0
114 -110 87 0
114 -110 111 0
-114 110 87 0
-114 110 111 0
114 -110 107 -91 0
114 -110 -107 91 0
-114 110 107 -91 0
-114 110 -107 91 0
114 110 -87 107 91 -111 0
114 110 -87 -107 -91 -111 0
-114 -110 -87 107 91 -111 0
-114 -110 -87 -107 -91 -111 0
116 87 -107 0
116 -87 107 0
-116 87 107 0
-116 -87 -107 0
115 91 -111 0
115 -91 111 0
-115 91 111 0
-115 -91 -111 0
117 -114 87 0
117 -114 115 0
-117 114 87 0
-117 114 115 0
117 -118 -114 0
-117 -118 114 0
117 118 114 -87 -115 0
-117 118 -114 -87 -115 0
118 87 -115 0
-118 87 115 0
-119 87 0
118 -119 -115 0
-118 -119 115 0
118 119 -87 115 0
-118 119 -87 -115 0
-120 87 0
118 -120 115 0
-118 -120 -115 0
118 120 -87 -115 0
-118 120 -87 115 0
121 122 -117 0
121 -117 118 0
-121 122 117 0
-121 117 118 0
121 -117 -87 0
-121 117 -87 0
121 -122 117 87 -118 0
-121 -122 -117 87 -118 0
122 -87 118 0
-122 87 118 0
-123 118 0
122 -123 -87 0
-122 -123 87 0
122 123 87 -118 0
-122 123 -87 -118 0
-124 118 0
122 -124 87 0
-122 -124 -87 0
122 124 -87 -118 0
-122 124 87 -118 0
125 -121 122 0
125 -121 118 0
-125 121 122 0
-125 121 118 0
125 -126 -121 0
-125 -126 121 0
125 126 121 -122 -118 0
-125 126 -121 -122 -118 0
126 122 -118 0
-126 122 118 0
-127 122 0
126 -127 -118 0
-126 -127 118 0
126 127 -122 118 0
-126 127 -122 -118 0
-128 122 0
126 -128 118 0
-126 -128 -118 0
126 128 -122 -118 0
-126 128 -122 118 0
129 130 -125 0
129 -125 126 0
-129 130 125 0
-129 125 126 0
129 -125 -122 0
-129 125 -122 0
129 -130 125 122 -126 0
-129 -130 -125 122 -126 0
130 -122 126 0
-130 122 126 0
-131 126 0
130 -131 -122 0
-130 -131 122 0
130 131 122 -126 0
-130 131 -122 -126 0
-132 126 0
130 -132 122 0
-130 -132 -122 0
130 132 -122 -126 0
-130 132 122 -126 0
133 -129 130 0
133 -129 126 0
-133 129 130 0
-133 129 126 0
133 -134 -129 0
-133 -134 129 0
133 134 129 -130 -126 0
-133 134 -129 -130 -126 0
134 130 -126 0
-134 130 126 0
-135 130 0
134 -135 -126 0
-134 -135 126 0
134 135 -130 126 0
-134 135 -130 -126 0
-136 130 0
134 -136 126 0
-134 -136 -126 0
134 136 -130 -126 0
-134 136 -130 126 0
137 -133 116 0
137 -133 111 0
-137 133 116 0
-137 133 111 0
137 -138 -133 0
-137 -138 133 0
137 138 133 -116 -111 0
-137 138 -133 -116 -111 0
138 116 -111 0
-138 116 111 0
-139 116 0
138 -139 -111 0
-138 -139 111 0
138 139 -116 111 0
-138 139 -116 -111 0
-140 116 0
138 -140 111 0
-138 -140 -111 0
138 140 -116 -111 0
-138 140 -116 111 0
141 142 -137 0
141 -137 138 0
-141 142 137 0
-141 137 138 0
141 -137 -116 0
-141 137 -116 0
141 -142 137 116 -138 0
-141 -142 -137 116 -138 0
142 -116 138 0
-142 116 138 0
-143 138 0
142 -143 -116 0
-142 -143 116 0
142 143 116 -138 0
-142 143 -116 -138 0
-144 138 0
142 -144 116 0
-142 -144 -116 0
142 144 -116 -138 0
-142 144 116 -138 0
145 -141 142 0
145 -141 138 0
-145 141 142 0
-145 141 138 0
145 -146 -141 0
-145 -146 141 0
145 146 141 -142 -138 0
-145 146 -141 -142 -138 0
146 142 -138 0
-146 142 138 0
-147 142 0
146 -147 -138 0
-146 -147 138 0
146 147 -142 138 0
-146 147 -142 -138 0
-148 142 0
146 -148 138 0
-146 -148 -138 0
146 148 -142 -138 0
-146 148 -142 138 0
149 150 -145 0
149 -145 146 0
-149 150 145 0
-149 145 146 0
149 -145 -142 0
-149 145 -142 0
149 -150 145 142 -146 0
-149 -150 -145 142 -146 0
150 -142 146 0
-150 142 146 0
-151 146 0
150 -151 -142 0
-150 -151 142 0
150 151 142 -146 0
-150 151 -142 -146 0
-152 146 0
150 -152 142 0
-150 -152 -142 0
150 152 -142 -146 0
-150 152 142 -146 0
153 -149 150 0
153 -149 146 0
-153 149 150 0
-153 149 146 0
153 -154 -149 0
-153 -154 149 0
153 154 149 -150 -146 0
-153 154 -149 -150 -146 0
154 150 -146 0
-154 150 146 0
-155 150 0
154 -155 -146 0
-154 -155 146 0
154 155 -150 146 0
-154 155 -150 -146 0
-156 150 0
154 -156 146 0
-154 -156 -146 0
154 156 -150 -146 0
-154 156 -150 146 0
